nK = 688;
nT = 4;
nI = 7;
L = 29;
TT = 163;
np = 1;
nc = 3;
b = [28, 45, 39, 62, 69, 55, 35];
d = [64, 96, 150, 123, 124, 101, 89];
m = [1.8, 1.9, 2.5, 1.8, 1.2, 1.6, 1.3];
pt = [0.25, 0.31, 0.33, 0.22];
st = [14.5, 17.98, 19.47, 11.66];
arc = {<1, 0, 1, 1, 0, 0, 0, [1, 1, 1, 1]>, <2, 1, 2, 1, 0, 0, 0, [1, 1, 1, 1]>, <3, 2, 3, 1, 0, 0, 0, [1, 1, 1, 1]>, <4, 3, 4, 1, 0, 0, 0, [1, 1, 1, 1]>, <5, 4, 5, 1, 0, 0, 0, [1, 1, 1, 1]>, <6, 5, 6, 1, 0, 0, 0, [1, 1, 1, 1]>, <7, 6, 7, 1, 0, 0, 0, [1, 1, 1, 1]>, <8, 7, 8, 1, 0, 0, 0, [1, 1, 1, 1]>, <9, 8, 9, 1, 0, 0, 0, [1, 1, 1, 1]>, <10, 9, 10, 1, 0, 0, 0, [1, 1, 1, 1]>, <11, 10, 11, 1, 0, 0, 0, [1, 1, 1, 1]>, <12, 11, 12, 1, 0, 0, 0, [1, 1, 1, 1]>, <13, 12, 13, 1, 0, 0, 0, [1, 1, 1, 1]>, <14, 13, 14, 1, 0, 0, 0, [1, 1, 1, 1]>, <15, 14, 15, 1, 0, 0, 0, [1, 1, 1, 1]>, <16, 15, 16, 1, 0, 0, 0, [1, 1, 1, 1]>, <17, 16, 17, 1, 0, 0, 0, [1, 1, 1, 1]>, <18, 17, 18, 1, 0, 0, 0, [1, 1, 1, 1]>, <19, 18, 19, 1, 0, 0, 0, [1, 1, 1, 1]>, <20, 19, 20, 1, 0, 0, 0, [1, 1, 1, 1]>, <21, 20, 21, 1, 0, 0, 0, [1, 1, 1, 1]>, <22, 21, 22, 1, 0, 0, 0, [1, 1, 1, 1]>, <23, 22, 23, 1, 0, 0, 0, [1, 1, 1, 1]>, <24, 23, 24, 1, 0, 0, 0, [1, 1, 1, 1]>, <25, 24, 25, 1, 0, 0, 0, [1, 1, 1, 1]>, <26, 25, 26, 1, 0, 0, 0, [1, 1, 1, 1]>, <27, 26, 27, 1, 0, 0, 0, [1, 1, 1, 1]>, <28, 27, 28, 1, 0, 0, 0, [1, 1, 1, 1]>, <29, 28, 29, 1, 0, 0, 0, [1, 1, 1, 1]>, <30, 0, 14, 14, 1, 1, 0, [0, 1, 1, 1]>, <31, 1, 15, 14, 1, 1, 0, [0, 1, 1, 1]>, <32, 2, 16, 14, 1, 1, 0, [0, 1, 1, 1]>, <33, 3, 17, 14, 1, 1, 0, [0, 1, 1, 1]>, <34, 4, 18, 14, 1, 1, 0, [0, 1, 1, 1]>, <35, 5, 19, 14, 1, 1, 0, [0, 1, 1, 1]>, <36, 6, 20, 14, 1, 1, 0, [0, 1, 1, 1]>, <37, 7, 21, 14, 1, 1, 0, [0, 1, 1, 1]>, <38, 8, 22, 14, 1, 1, 0, [0, 1, 1, 1]>, <39, 9, 23, 14, 1, 1, 0, [0, 1, 1, 1]>, <40, 10, 24, 14, 1, 1, 0, [0, 1, 1, 1]>, <41, 11, 25, 14, 1, 1, 0, [0, 1, 1, 1]>, <42, 12, 26, 14, 1, 1, 0, [0, 1, 1, 1]>, <43, 13, 27, 14, 1, 1, 0, [0, 1, 1, 1]>, <44, 14, 28, 14, 1, 1, 0, [0, 1, 1, 1]>, <45, 15, 29, 14, 1, 1, 0, [0, 1, 1, 1]>, <46, 0, 17, 17, 2, 0, 1, [1, 1, 1, 0]>, <47, 1, 18, 17, 2, 0, 1, [1, 1, 1, 0]>, <48, 2, 19, 17, 2, 0, 1, [1, 1, 1, 0]>, <49, 3, 20, 17, 2, 0, 1, [1, 1, 1, 0]>, <50, 4, 21, 17, 2, 0, 1, [1, 1, 1, 0]>, <51, 5, 22, 17, 2, 0, 1, [1, 1, 1, 0]>, <52, 6, 23, 17, 2, 0, 1, [1, 1, 1, 0]>, <53, 7, 24, 17, 2, 0, 1, [1, 1, 1, 0]>, <54, 8, 25, 17, 2, 0, 1, [1, 1, 1, 0]>, <55, 9, 26, 17, 2, 0, 1, [1, 1, 1, 0]>, <56, 10, 27, 17, 2, 0, 1, [1, 1, 1, 0]>, <57, 11, 28, 17, 2, 0, 1, [1, 1, 1, 0]>, <58, 12, 29, 17, 2, 0, 1, [1, 1, 1, 0]>, <59, 0, 14, 14, 3, 0, 1, [1, 0, 1, 1]>, <60, 1, 15, 14, 3, 0, 1, [1, 0, 1, 1]>, <61, 2, 16, 14, 3, 0, 1, [1, 0, 1, 1]>, <62, 3, 17, 14, 3, 0, 1, [1, 0, 1, 1]>, <63, 4, 18, 14, 3, 0, 1, [1, 0, 1, 1]>, <64, 5, 19, 14, 3, 0, 1, [1, 0, 1, 1]>, <65, 6, 20, 14, 3, 0, 1, [1, 0, 1, 1]>, <66, 7, 21, 14, 3, 0, 1, [1, 0, 1, 1]>, <67, 8, 22, 14, 3, 0, 1, [1, 0, 1, 1]>, <68, 9, 23, 14, 3, 0, 1, [1, 0, 1, 1]>, <69, 10, 24, 14, 3, 0, 1, [1, 0, 1, 1]>, <70, 11, 25, 14, 3, 0, 1, [1, 0, 1, 1]>, <71, 12, 26, 14, 3, 0, 1, [1, 0, 1, 1]>, <72, 13, 27, 14, 3, 0, 1, [1, 0, 1, 1]>, <73, 14, 28, 14, 3, 0, 1, [1, 0, 1, 1]>, <74, 15, 29, 14, 3, 0, 1, [1, 0, 1, 1]>, <75, 0, 17, 17, 4, 0, 1, [1, 1, 1, 0]>, <76, 1, 18, 17, 4, 0, 1, [1, 1, 1, 0]>, <77, 2, 19, 17, 4, 0, 1, [1, 1, 1, 0]>, <78, 3, 20, 17, 4, 0, 1, [1, 1, 1, 0]>, <79, 4, 21, 17, 4, 0, 1, [1, 1, 1, 0]>, <80, 5, 22, 17, 4, 0, 1, [1, 1, 1, 0]>, <81, 6, 23, 17, 4, 0, 1, [1, 1, 1, 0]>, <82, 7, 24, 17, 4, 0, 1, [1, 1, 1, 0]>, <83, 8, 25, 17, 4, 0, 1, [1, 1, 1, 0]>, <84, 9, 26, 17, 4, 0, 1, [1, 1, 1, 0]>, <85, 10, 27, 17, 4, 0, 1, [1, 1, 1, 0]>, <86, 11, 28, 17, 4, 0, 1, [1, 1, 1, 0]>, <87, 12, 29, 17, 4, 0, 1, [1, 1, 1, 0]>, <88, 0, 17, 17, 5, 0, 0, [1, 0, 1, 1]>, <89, 1, 18, 17, 5, 0, 0, [1, 0, 1, 1]>, <90, 2, 19, 17, 5, 0, 0, [1, 0, 1, 1]>, <91, 3, 20, 17, 5, 0, 0, [1, 0, 1, 1]>, <92, 4, 21, 17, 5, 0, 0, [1, 0, 1, 1]>, <93, 5, 22, 17, 5, 0, 0, [1, 0, 1, 1]>, <94, 6, 23, 17, 5, 0, 0, [1, 0, 1, 1]>, <95, 7, 24, 17, 5, 0, 0, [1, 0, 1, 1]>, <96, 8, 25, 17, 5, 0, 0, [1, 0, 1, 1]>, <97, 9, 26, 17, 5, 0, 0, [1, 0, 1, 1]>, <98, 10, 27, 17, 5, 0, 0, [1, 0, 1, 1]>, <99, 11, 28, 17, 5, 0, 0, [1, 0, 1, 1]>, <100, 12, 29, 17, 5, 0, 0, [1, 0, 1, 1]>, <101, 0, 15, 15, 6, 0, 1, [1, 1, 1, 0]>, <102, 1, 16, 15, 6, 0, 1, [1, 1, 1, 0]>, <103, 2, 17, 15, 6, 0, 1, [1, 1, 1, 0]>, <104, 3, 18, 15, 6, 0, 1, [1, 1, 1, 0]>, <105, 4, 19, 15, 6, 0, 1, [1, 1, 1, 0]>, <106, 5, 20, 15, 6, 0, 1, [1, 1, 1, 0]>, <107, 6, 21, 15, 6, 0, 1, [1, 1, 1, 0]>, <108, 7, 22, 15, 6, 0, 1, [1, 1, 1, 0]>, <109, 8, 23, 15, 6, 0, 1, [1, 1, 1, 0]>, <110, 9, 24, 15, 6, 0, 1, [1, 1, 1, 0]>, <111, 10, 25, 15, 6, 0, 1, [1, 1, 1, 0]>, <112, 11, 26, 15, 6, 0, 1, [1, 1, 1, 0]>, <113, 12, 27, 15, 6, 0, 1, [1, 1, 1, 0]>, <114, 13, 28, 15, 6, 0, 1, [1, 1, 1, 0]>, <115, 14, 29, 15, 6, 0, 1, [1, 1, 1, 0]>, <116, 0, 18, 18, 7, 0, 0, [1, 1, 0, 1]>, <117, 1, 19, 18, 7, 0, 0, [1, 1, 0, 1]>, <118, 2, 20, 18, 7, 0, 0, [1, 1, 0, 1]>, <119, 3, 21, 18, 7, 0, 0, [1, 1, 0, 1]>, <120, 4, 22, 18, 7, 0, 0, [1, 1, 0, 1]>, <121, 5, 23, 18, 7, 0, 0, [1, 1, 0, 1]>, <122, 6, 24, 18, 7, 0, 0, [1, 1, 0, 1]>, <123, 7, 25, 18, 7, 0, 0, [1, 1, 0, 1]>, <124, 8, 26, 18, 7, 0, 0, [1, 1, 0, 1]>, <125, 9, 27, 18, 7, 0, 0, [1, 1, 0, 1]>, <126, 10, 28, 18, 7, 0, 0, [1, 1, 0, 1]>, <127, 11, 29, 18, 7, 0, 0, [1, 1, 0, 1]>};
